
Gurobi 9.5.0 (linux64) logging started Tue Nov  7 13:31:29 2023

Set parameter LogFile to value "/lustre1/scratch/348/vsc34888/JointResearch/05.Models/06.Benchmarking/E.Representative_days_based_on_Line_Benefits_OptModel/9n_ByStages_nc60/openStarNet_9n_ByStages_nc60.log"
Set parameter Method to value 2
Set parameter MIPFocus to value 1
Set parameter Presolve to value 2
Set parameter RINS to value 100
Set parameter MIPGap to value 0.01
Set parameter Threads to value 36
Set parameter TimeLimit to value 604800
Set parameter IterationLimit to value 760000000
Gurobi Optimizer version 9.5.0 build v9.5.0rc5 (linux64)
Thread count: 36 physical cores, 36 logical processors, using up to 36 threads
Optimize a model with 15723 rows, 8325 columns and 48943 nonzeros
Model fingerprint: 0x93be4f73
Variable types: 8289 continuous, 36 integer (36 binary)
Coefficient statistics:
  Matrix range     [8e-04, 2e+03]
  Objective range  [1e+00, 1e+00]
  Bounds range     [4e-04, 2e+00]
  RHS range        [4e-04, 1e+00]
Presolve removed 5103 rows and 2584 columns
Presolve time: 0.07s
Presolved: 10620 rows, 5741 columns, 37565 nonzeros
Variable types: 5705 continuous, 36 integer (36 binary)
Found heuristic solution: objective 849.3988695
Root relaxation presolved: 10620 rows, 5741 columns, 37565 nonzeros

Root barrier log...

Ordering time: 0.00s

Barrier statistics:
 Dense cols : 36
 AA' NZ     : 1.429e+05
 Factor NZ  : 2.914e+05 (roughly 9 MB of memory)
 Factor Ops : 1.218e+07 (less than 1 second per iteration)
 Threads    : 36

                  Objective                Residual
Iter       Primal          Dual         Primal    Dual     Compl     Time
   0   3.60915615e+05 -6.32583001e+07  6.14e+00 5.32e+02  8.99e+03     0s
   1   4.94161386e+04 -1.78194125e+07  6.71e-01 1.69e-09  1.16e+03     0s
   2   1.49709506e+04 -2.35549097e+06  7.86e-03 6.29e-10  1.15e+02     0s
   3   7.97753965e+03 -4.19431497e+04  4.25e-13 2.15e-11  2.40e+00     0s
   4   9.20897624e+02 -1.11214881e+04  4.85e-13 5.08e-12  5.78e-01     0s
   5   6.06265433e+02 -3.64215361e+03  3.79e-13 3.64e-12  2.04e-01     0s
   6   4.48899184e+02 -1.43620655e+03  3.16e-13 1.82e-12  9.05e-02     0s
   7   3.12411212e+02 -8.53233411e+02  1.73e-13 1.82e-12  5.59e-02     0s
   8   1.97900397e+02 -2.61632260e+02  2.46e-13 1.82e-12  2.21e-02     0s
   9   1.22346161e+02  1.33374923e+01  2.31e-13 1.82e-12  5.23e-03     0s
  10   9.94689659e+01  6.20723583e+01  1.09e-12 1.82e-12  1.79e-03     0s
  11   9.49321825e+01  7.60599396e+01  7.04e-13 9.09e-13  9.06e-04     0s
  12   9.15847020e+01  7.92512270e+01  1.33e-12 9.09e-13  5.92e-04     0s
  13   8.96405789e+01  8.55894477e+01  1.65e-12 1.82e-12  1.94e-04     0s
  14   8.85858956e+01  8.75286413e+01  1.99e-12 1.82e-12  5.07e-05     0s
  15   8.84612208e+01  8.84383166e+01  7.33e-12 1.82e-12  1.10e-06     0s
  16   8.84573351e+01  8.84572239e+01  6.84e-09 3.64e-12  5.35e-09     0s
  17   8.84572696e+01  8.84572691e+01  8.23e-10 1.82e-12  2.26e-11     0s

Barrier solved model in 17 iterations and 0.34 seconds (0.27 work units)
Optimal objective 8.84572696e+01


Root relaxation: objective 8.845727e+01, 511 iterations, 0.24 seconds (0.12 work units)

    Nodes    |    Current Node    |     Objective Bounds      |     Work
 Expl Unexpl |  Obj  Depth IntInf | Incumbent    BestBd   Gap | It/Node Time

     0     0   88.45727    0    6  849.39887   88.45727  89.6%     -    0s
H    0     0                     742.4530649   88.45727  88.1%     -    0s
H    0     0                      97.2375432   96.36207  0.90%     -    0s
     0     0   96.36207    0    1   97.23754   96.36207  0.90%     -    0s

Cutting planes:
  MIR: 184

Explored 1 nodes (770 simplex iterations) in 0.51 seconds (0.38 work units)
Thread count was 36 (of 36 available processors)

Solution count 3: 97.2375 742.453 849.399 

Optimal solution found (tolerance 1.00e-02)
Best objective 9.723754322531e+01, best bound 9.636207250807e+01, gap 0.9003%

Gurobi 9.5.0 (linux64) logging started Tue Nov  7 13:31:31 2023

Set parameter LogFile to value "/lustre1/scratch/348/vsc34888/JointResearch/05.Models/06.Benchmarking/E.Representative_days_based_on_Line_Benefits_OptModel/9n_ByStages_nc60/openStarNet_9n_ByStages_nc60.log"
Set parameter Method to value 2
Set parameter MIPFocus to value 1
Set parameter Presolve to value 2
Set parameter RINS to value 100
Set parameter MIPGap to value 0.01
Set parameter Threads to value 36
Set parameter TimeLimit to value 604800
Set parameter IterationLimit to value 760000000
No parameters matching 'relax_integrality' found
Gurobi Optimizer version 9.5.0 build v9.5.0rc5 (linux64)
Thread count: 36 physical cores, 36 logical processors, using up to 36 threads
Optimize a model with 15723 rows, 8289 columns and 40267 nonzeros
Model fingerprint: 0x265ee2c2
Coefficient statistics:
  Matrix range     [8e-04, 2e+03]
  Objective range  [1e+00, 1e+00]
  Bounds range     [4e-04, 2e+00]
  RHS range        [4e-04, 2e+01]
Presolve removed 13563 rows and 4564 columns
Presolve time: 0.01s
Presolved: 2160 rows, 3725 columns, 8225 nonzeros

Ordering time: 0.00s

Barrier statistics:
 AA' NZ     : 6.060e+03
 Factor NZ  : 2.220e+04 (roughly 3 MB of memory)
 Factor Ops : 2.735e+05 (less than 1 second per iteration)
 Threads    : 1

                  Objective                Residual
Iter       Primal          Dual         Primal    Dual     Compl     Time
   0   4.04484294e+05 -3.71095229e+07  4.05e+00 1.82e-12  1.07e+04     0s
   1   5.99394947e+04 -7.30457026e+06  4.28e-01 9.66e-12  1.27e+03     0s
   2   1.77744919e+04 -1.15572218e+06  1.69e-02 6.37e-12  1.48e+02     0s
   3   8.78718481e+03 -4.63118299e+04  2.66e-14 5.46e-12  6.74e+00     0s
   4   1.32693182e+03 -8.69223146e+03  1.39e-13 3.64e-12  1.23e+00     0s
   5   6.95520616e+02 -2.16504568e+03  8.17e-14 9.09e-13  3.50e-01     0s
   6   3.65267267e+02 -5.31370588e+02  6.13e-14 9.09e-13  1.10e-01     0s
   7   2.15463530e+02 -1.97753710e+02  1.07e-13 1.82e-12  5.06e-02     0s
   8   1.36512188e+02 -1.50506647e+00  1.29e-13 1.82e-12  1.69e-02     0s
   9   1.12994385e+02  6.73144500e+01  1.83e-13 1.82e-12  5.59e-03     0s
  10   1.02991615e+02  8.38496848e+01  2.34e-13 1.82e-12  2.34e-03     0s
  11   9.86083512e+01  9.12623711e+01  8.38e-13 9.09e-13  8.99e-04     0s
  12   9.78055894e+01  9.51281410e+01  1.67e-12 1.82e-12  3.28e-04     0s
  13   9.72832432e+01  9.70997667e+01  8.63e-13 1.82e-12  2.25e-05     0s
  14   9.72376217e+01  9.72373793e+01  2.85e-12 1.82e-12  2.97e-08     0s
  15   9.72375433e+01  9.72375431e+01  5.64e-13 1.82e-12  2.97e-11     0s

Barrier solved model in 15 iterations and 0.04 seconds (0.03 work units)
Optimal objective 9.72375433e+01

Crossover log...

     696 DPushes remaining with DInf 0.0000000e+00                 0s
       0 DPushes remaining with DInf 0.0000000e+00                 0s

      68 PPushes remaining with PInf 0.0000000e+00                 0s
       0 PPushes remaining with PInf 0.0000000e+00                 0s

  Push phase complete: Pinf 0.0000000e+00, Dinf 7.2667566e-14      0s

Iteration    Objective       Primal Inf.    Dual Inf.      Time
     155    9.7237543e+01   0.000000e+00   0.000000e+00      0s

Solved in 155 iterations and 0.05 seconds (0.04 work units)
Optimal objective  9.723754323e+01

Gurobi 11.0.0 (linux64) logging started Wed Apr 10 21:40:17 2024

Set parameter LogFile to value "/lustre1/scratch/348/vsc34888/JointResearch/05.Models/06.Benchmarking/E.Representative_days_based_on_Line_Benefits_OptModel/9n_ByStages_nc60/openStarNet_9n_ByStages_nc60.log"
Set parameter Method to value 2
Set parameter MIPFocus to value 1
Set parameter Presolve to value 2
Set parameter RINS to value 100
Set parameter MIPGap to value 0.01
Set parameter Threads to value 36
Set parameter TimeLimit to value 259200
Set parameter IterationLimit to value 760000000
Gurobi Optimizer version 11.0.0 build v11.0.0rc2 (linux64 - "Rocky Linux 8.8 (Green Obsidian)")

CPU model: Intel(R) Xeon(R) Gold 6140 CPU @ 2.30GHz, instruction set [SSE2|AVX|AVX2|AVX512]
Thread count: 36 physical cores, 36 logical processors, using up to 36 threads

Optimize a model with 15723 rows, 8271 columns and 47281 nonzeros
Model fingerprint: 0x98100124
Variable types: 8235 continuous, 36 integer (36 binary)
Coefficient statistics:
  Matrix range     [9e-04, 2e+03]
  Objective range  [1e+00, 1e+00]
  Bounds range     [4e-04, 2e+00]
  RHS range        [4e-04, 1e+00]
Presolve removed 5343 rows and 2824 columns
Presolve time: 0.09s
Presolved: 10380 rows, 5447 columns, 35411 nonzeros
Variable types: 5411 continuous, 36 integer (36 binary)
Found heuristic solution: objective 888.0681961
Root relaxation presolved: 10380 rows, 5447 columns, 35411 nonzeros

Root barrier log...

Ordering time: 0.01s

Barrier statistics:
 Dense cols : 36
 AA' NZ     : 1.229e+05
 Factor NZ  : 2.433e+05 (roughly 8 MB of memory)
 Factor Ops : 8.104e+06 (less than 1 second per iteration)
 Threads    : 36

                  Objective                Residual
Iter       Primal          Dual         Primal    Dual     Compl     Time
   0   4.87122393e+05 -6.18506373e+07  7.27e+00 4.94e+02  1.19e+04     0s
   1   7.69726080e+04 -2.51893791e+07  1.02e+00 2.57e-09  1.84e+03     0s
   2   1.71750576e+04 -5.18258182e+06  2.80e-02 2.41e-09  2.63e+02     0s
   3   1.00802145e+04 -9.93118498e+04  4.71e-14 2.60e-10  5.40e+00     0s
   4   1.92941261e+03 -1.80267884e+04  3.46e-14 3.40e-11  9.85e-01     0s
   5   8.90424125e+02 -5.75399701e+03  2.49e-14 1.01e-11  3.28e-01     0s
   6   6.06792092e+02 -2.26661044e+03  2.71e-14 4.10e-12  1.42e-01     0s
   7   5.18922877e+02 -1.50263717e+03  1.34e-13 2.88e-12  9.98e-02     0s
   8   3.10656193e+02 -4.66946246e+02  6.39e-14 1.82e-12  3.84e-02     0s
   9   1.61711544e+02 -4.41652773e+00  1.09e-13 1.82e-12  8.20e-03     0s
  10   1.19628827e+02  6.57378662e+01  1.89e-13 1.82e-12  2.66e-03     0s
  11   1.05796284e+02  7.83092319e+01  3.04e-12 1.82e-12  1.36e-03     1s
  12   1.00427387e+02  8.26944585e+01  1.38e-12 9.09e-13  8.76e-04     1s
  13   9.76606652e+01  8.72246911e+01  2.27e-12 1.82e-12  5.15e-04     1s
  14   9.69414606e+01  9.17494635e+01  2.25e-12 1.82e-12  2.56e-04     1s
  15   9.61035832e+01  9.44357260e+01  3.51e-12 9.09e-13  8.23e-05     1s
  16   9.59356282e+01  9.49946559e+01  9.73e-12 1.82e-12  4.65e-05     1s
  17   9.58032001e+01  9.52049310e+01  4.43e-12 1.82e-12  2.95e-05     1s
  18   9.57583419e+01  9.57283901e+01  1.58e-11 2.73e-12  1.48e-06     1s
  19   9.57526940e+01  9.57525168e+01  1.15e-09 2.73e-12  8.75e-09     1s
  20   9.57526312e+01  9.57526310e+01  7.73e-11 1.82e-12  8.75e-12     1s

Barrier solved model in 20 iterations and 0.70 seconds (0.27 work units)
Optimal objective 9.57526312e+01


Root relaxation: objective 9.575263e+01, 526 iterations, 0.64 seconds (0.13 work units)

    Nodes    |    Current Node    |     Objective Bounds      |     Work
 Expl Unexpl |  Obj  Depth IntInf | Incumbent    BestBd   Gap | It/Node Time

     0     0   95.75263    0    6  888.06820   95.75263  89.2%     -    0s
H    0     0                     742.9847654   95.75263  87.1%     -    1s
H    0     0                     115.3686892   95.75263  17.0%     -    1s
     0     0  103.52262    0    1  115.36869  103.52262  10.3%     -    1s
H    0     0                     105.3943941  103.52262  1.78%     -    1s
H    0     0                     104.3436892  103.52262  0.79%     -    1s

Cutting planes:
  Gomory: 1
  MIR: 49
  RLT: 1
  Relax-and-lift: 7

Explored 1 nodes (679 simplex iterations) in 1.76 seconds (0.42 work units)
Thread count was 36 (of 36 available processors)

Solution count 5: 104.344 105.394 115.369 ... 888.068

Optimal solution found (tolerance 1.00e-02)
Best objective 1.043436892048e+02, best bound 1.043436892048e+02, gap 0.0000%

Gurobi 11.0.0 (linux64) logging started Wed Apr 10 21:40:20 2024

Set parameter LogFile to value "/lustre1/scratch/348/vsc34888/JointResearch/05.Models/06.Benchmarking/E.Representative_days_based_on_Line_Benefits_OptModel/9n_ByStages_nc60/openStarNet_9n_ByStages_nc60.log"
Set parameter Method to value 2
Set parameter MIPFocus to value 1
Set parameter Presolve to value 2
Set parameter RINS to value 100
Set parameter MIPGap to value 0.01
Set parameter Threads to value 36
Set parameter TimeLimit to value 259200
Set parameter IterationLimit to value 760000000
Gurobi Optimizer version 11.0.0 build v11.0.0rc2 (linux64 - "Rocky Linux 8.8 (Green Obsidian)")

CPU model: Intel(R) Xeon(R) Gold 6140 CPU @ 2.30GHz, instruction set [SSE2|AVX|AVX2|AVX512]
Thread count: 36 physical cores, 36 logical processors, using up to 36 threads

Optimize a model with 15723 rows, 8235 columns and 38605 nonzeros
Model fingerprint: 0x86f4f39c
Coefficient statistics:
  Matrix range     [9e-04, 2e+03]
  Objective range  [1e+00, 1e+00]
  Bounds range     [4e-04, 2e+00]
  RHS range        [4e-04, 2e+01]
Presolve removed 14379 rows and 5560 columns
Presolve time: 0.02s
Presolved: 1344 rows, 2735 columns, 5962 nonzeros

Ordering time: 0.00s

Barrier statistics:
 AA' NZ     : 2.856e+03
 Factor NZ  : 1.458e+04 (roughly 2 MB of memory)
 Factor Ops : 2.081e+05 (less than 1 second per iteration)
 Threads    : 1

                  Objective                Residual
Iter       Primal          Dual         Primal    Dual     Compl     Time
   0   5.75792605e+05 -3.58696592e+07  7.11e+00 1.12e+03  3.19e+04     0s
   1   7.06551453e+04 -1.88665353e+07  7.53e-01 2.67e-11  4.96e+03     0s
   2   1.95384869e+04 -4.96589725e+06  2.45e-02 3.50e-11  8.29e+02     0s
   3   1.38218779e+04 -1.03279498e+05  4.33e-14 2.38e-11  1.87e+01     0s
   4   3.16984500e+03 -1.58050278e+04  2.99e-14 7.28e-12  3.04e+00     0s
   5   1.10554114e+03 -4.31919945e+03  1.27e-14 7.28e-12  8.68e-01     0s
   6   5.90581584e+02 -1.03889331e+03  9.38e-15 7.28e-12  2.61e-01     0s
   7   3.82931784e+02 -3.73999446e+02  6.41e-14 3.64e-12  1.21e-01     0s
   8   2.62420077e+02 -6.10477980e+01  3.19e-14 3.64e-12  5.18e-02     0s
   9   1.64666942e+02  4.57323831e+01  5.89e-14 3.64e-12  1.90e-02     0s
  10   1.16288346e+02  8.69294904e+01  9.71e-14 7.28e-12  4.70e-03     0s
  11   1.09684185e+02  9.96815379e+01  2.37e-13 7.28e-12  1.60e-03     0s
  12   1.06284044e+02  1.02596856e+02  9.51e-14 7.28e-12  5.90e-04     0s
  13   1.04761066e+02  1.03810077e+02  1.25e-13 7.28e-12  1.52e-04     0s
  14   1.04411170e+02  1.04306376e+02  3.09e-14 1.82e-12  1.68e-05     0s
  15   1.04343988e+02  1.04343333e+02  3.62e-14 1.82e-12  1.05e-07     0s
  16   1.04343690e+02  1.04343689e+02  1.85e-13 1.82e-12  1.05e-10     0s

Barrier solved model in 16 iterations and 0.05 seconds (0.03 work units)
Optimal objective 1.04343690e+02

Crossover log...

     694 DPushes remaining with DInf 0.0000000e+00                 0s
       0 DPushes remaining with DInf 0.0000000e+00                 0s

       8 PPushes remaining with PInf 0.0000000e+00                 0s
       0 PPushes remaining with PInf 0.0000000e+00                 0s

  Push phase complete: Pinf 0.0000000e+00, Dinf 2.3303234e-13      0s

Iteration    Objective       Primal Inf.    Dual Inf.      Time
      69    1.0434369e+02   0.000000e+00   0.000000e+00      0s

Solved in 69 iterations and 0.06 seconds (0.03 work units)
Optimal objective  1.043436892e+02
